NAME : portcgen-29-9
COMMENT : portcgen N=29, seed=9
TYPE : TSP
DIMENSION : 29
EDGE_WEIGHT_TYPE : EUC_2D
NODE_COORD_SECTION
1 -5761 222447
2 294147 114959
3 -211790 149300
4 56358 -70035
5 -36893 -106121
6 67083 -42982
7 -151863 127165
8 -106107 -34883
9 133746 5073
10 -105612 77182
11 41227 185588
12 -51451 270242
13 270767 -74791
14 -33668 24068
15 427843 19888
16 -206725 176828
17 -86845 490638
18 -93232 4978
19 -163960 241229
20 250110 6032
21 69853 24085
22 82823 -69779
23 107696 -93091
24 75366 -92158
25 -69569 306696
26 -160488 -204567
27 2478 -12994
28 -73003 159411
29 -214746 141823
